
GUB cover cuts applied:  8
Clique cuts applied:  6
Cover cuts applied:  3
Implied bound cuts applied:  10
Mixed integer rounding cuts applied:  2
Zero-half cuts applied:  4
Multi commodity flow cuts applied:  2
Gomory fractional cuts applied:  1

Root node processing (before b&c):
  Real time             =    0.02 sec. (7.99 ticks)
Parallel b&c, 4 threads:
  Real time             =    0.00 sec. (0.00 ticks)
  Sync time (average)   =    0.00 sec.
  Wait time (average)   =    0.00 sec.
                          ------------
Total (root+branch&cut) =    0.02 sec. (7.99 ticks)
Version identifier: 12.10.0.0 | 2019-11-26 | 843d4de
CPXPARAM_MIP_Interval                            10
CPXPARAM_MIP_Tolerances_AbsMIPGap                0.98999999999999999
Tried aggregator 2 times.
MIP Presolve eliminated 799 rows and 370 columns.
MIP Presolve added 4 rows and 0 columns.
MIP Presolve modified 66 coefficients.
Aggregator did 11 substitutions.
Reduced MIP has 358 rows, 78 columns, and 820 nonzeros.
Reduced MIP has 59 binaries, 19 generals, 0 SOSs, and 0 indicators.
Presolve time = 0.00 sec. (1.68 ticks)
Found incumbent of value 4.000000 after 0.00 sec. (2.67 ticks)
Probing fixed 0 vars, tightened 6 bounds.
Probing time = 0.00 sec. (0.20 ticks)
Cover probing fixed 0 vars, tightened 8 bounds.
Tried aggregator 1 time.
Detecting symmetries...
MIP Presolve eliminated 210 rows and 0 columns.
MIP Presolve modified 20 coefficients.
Reduced MIP has 148 rows, 78 columns, and 400 nonzeros.
Reduced MIP has 59 binaries, 19 generals, 0 SOSs, and 0 indicators.
Presolve time = 0.00 sec. (0.43 ticks)
Probing fixed 0 vars, tightened 6 bounds.
Probing time = 0.00 sec. (0.10 ticks)
Cover probing fixed 0 vars, tightened 5 bounds.
Clique table members: 118.
MIP emphasis: balance optimality and feasibility.
MIP search method: dynamic search.
Parallel mode: deterministic, using up to 4 threads.
Root relaxation solution time = 0.00 sec. (0.37 ticks)

        Nodes                                         Cuts/
   Node  Left     Objective  IInf  Best Integer    Best Bound    ItCnt     Gap

*     0+    0                            4.0000       20.0000           400.00%
*     0+    0                           10.0000       20.0000           100.00%
      0     0       12.5000    39       10.0000       12.5000       64   25.00%
      0     0       12.0000    39       10.0000      Cuts: 49      113   20.00%
      0     0       12.0000    39       10.0000      Cuts: 45      136   20.00%
      0     0       12.0000    39       10.0000       Cuts: 3      155   20.00%
*     0+    0                           11.0000       12.0000             9.09%
      0     0        cutoff             11.0000       11.0000      155    0.00%
Elapsed time = 0.02 sec. (14.81 ticks, tree = 0.01 MB, solutions = 3)
the number of Nodes = 0
